% From JaCoP's nonogramRepository/data000.nin
 rows = 10;
 row_rule_len = 4;
 row_rules = array2d(1..rows, 1..row_rule_len, 
[
 0,0,0,1,
 0,0,0,4,
 0,0,4,1,
 0,0,0,8,
 0,0,2,2,
 0,0,3,3,
 0,0,1,5,
 1,2,2,1,
 0,0,3,3,
 0,0,0,8
]);

 cols = 10;
 col_rule_len = 3;
 col_rules = array2d(1..cols, 1..col_rule_len, 
[
 0,2,3,
 0,2,2,
 0,5,3,
 0,8,1,
 1,2,1,
 1,1,1,
 1,3,1,
 0,0,7,
 0,3,2,
 0,2,2
]);

